(set-logic QF_LRA)
(declare-fun T1 () Real )
(declare-fun T2 () Real )
(declare-fun T3 () Real )
(declare-fun T4 () Real )
(declare-fun T5 () Real )
(declare-fun T6 () Real )
(declare-fun T7 () Real )
(declare-fun T8 () Real )
(declare-fun T9 () Real )
(declare-fun T10 () Real )
(declare-fun Z () Real )
(declare-fun k () Real )
(assert (let
(( $goal (>= Z k) ))
(let
((
$phi ( and 
(or ( <= ( + T1 46 ) T2 ) ( <= ( + T2 52 ) T1 ) )
(or ( <= ( + T1 100 )  ( + T2 52 ) ) ( <= ( + T2 54 )( + T1 46 ) ) )
(or ( <= ( + T1 170 )  ( + T2 54 ) ) ( <= ( + T2 139 )( + T1 100 ) ) )
(or ( <= ( + T1 199 )  ( + T2 139 ) ) ( <= ( + T2 147 )( + T1 170 ) ) )
(or ( <= ( + T1 260 )  ( + T2 147 ) ) ( <= ( + T2 193 )( + T1 199 ) ) )
(or ( <= ( + T1 358 )  ( + T2 193 ) ) ( <= ( + T2 200 )( + T1 260 ) ) )
(or ( <= ( + T1 400 )  ( + T2 200 ) ) ( <= ( + T2 252 )( + T1 358 ) ) )
(or ( <= ( + T1 470 )  ( + T2 252 ) ) ( <= ( + T2 335 )( + T1 400 ) ) )
(or ( <= ( + T1 527 )  ( + T2 335 ) ) ( <= ( + T2 354 )( + T1 470 ) ) )
(or ( <= ( + T1 602 )  ( + T2 354 ) ) ( <= ( + T2 384 )( + T1 527 ) ) )
(or ( <= ( + T1 691 )  ( + T2 384 ) ) ( <= ( + T2 415 )( + T1 602 ) ) )
(or ( <= ( + T1 772 )  ( + T2 415 ) ) ( <= ( + T2 459 )( + T1 691 ) ) )
(or ( <= ( + T1 46 ) T3 ) ( <= ( + T3 58 ) T1 ) )
(or ( <= ( + T1 100 )  ( + T3 58 ) ) ( <= ( + T3 128 )( + T1 46 ) ) )
(or ( <= ( + T1 170 )  ( + T3 128 ) ) ( <= ( + T3 226 )( + T1 100 ) ) )
(or ( <= ( + T1 199 )  ( + T3 226 ) ) ( <= ( + T3 304 )( + T1 170 ) ) )
(or ( <= ( + T1 260 )  ( + T3 304 ) ) ( <= ( + T3 402 )( + T1 199 ) ) )
(or ( <= ( + T1 358 )  ( + T3 402 ) ) ( <= ( + T3 491 )( + T1 260 ) ) )
(or ( <= ( + T1 400 )  ( + T3 491 ) ) ( <= ( + T3 525 )( + T1 358 ) ) )
(or ( <= ( + T1 470 )  ( + T3 525 ) ) ( <= ( + T3 620 )( + T1 400 ) ) )
(or ( <= ( + T1 527 )  ( + T3 620 ) ) ( <= ( + T3 663 )( + T1 470 ) ) )
(or ( <= ( + T1 602 )  ( + T3 663 ) ) ( <= ( + T3 666 )( + T1 527 ) ) )
(or ( <= ( + T1 691 )  ( + T3 666 ) ) ( <= ( + T3 689 )( + T1 602 ) ) )
(or ( <= ( + T1 772 )  ( + T3 689 ) ) ( <= ( + T3 744 )( + T1 691 ) ) )
(or ( <= ( + T1 46 ) T4 ) ( <= ( + T4 52 ) T1 ) )
(or ( <= ( + T1 100 )  ( + T4 52 ) ) ( <= ( + T4 117 )( + T1 46 ) ) )
(or ( <= ( + T1 170 )  ( + T4 117 ) ) ( <= ( + T4 193 )( + T1 100 ) ) )
(or ( <= ( + T1 199 )  ( + T4 193 ) ) ( <= ( + T4 253 )( + T1 170 ) ) )
(or ( <= ( + T1 260 )  ( + T4 253 ) ) ( <= ( + T4 344 )( + T1 199 ) ) )
(or ( <= ( + T1 358 )  ( + T4 344 ) ) ( <= ( + T4 408 )( + T1 260 ) ) )
(or ( <= ( + T1 400 )  ( + T4 408 ) ) ( <= ( + T4 448 )( + T1 358 ) ) )
(or ( <= ( + T1 470 )  ( + T4 448 ) ) ( <= ( + T4 491 )( + T1 400 ) ) )
(or ( <= ( + T1 527 )  ( + T4 491 ) ) ( <= ( + T4 556 )( + T1 470 ) ) )
(or ( <= ( + T1 602 )  ( + T4 556 ) ) ( <= ( + T4 581 )( + T1 527 ) ) )
(or ( <= ( + T1 691 )  ( + T4 581 ) ) ( <= ( + T4 583 )( + T1 602 ) ) )
(or ( <= ( + T1 772 )  ( + T4 583 ) ) ( <= ( + T4 645 )( + T1 691 ) ) )
(or ( <= ( + T1 46 ) T5 ) ( <= ( + T5 31 ) T1 ) )
(or ( <= ( + T1 100 )  ( + T5 31 ) ) ( <= ( + T5 85 )( + T1 46 ) ) )
(or ( <= ( + T1 170 )  ( + T5 85 ) ) ( <= ( + T5 130 )( + T1 100 ) ) )
(or ( <= ( + T1 199 )  ( + T5 130 ) ) ( <= ( + T5 179 )( + T1 170 ) ) )
(or ( <= ( + T1 260 )  ( + T5 179 ) ) ( <= ( + T5 214 )( + T1 199 ) ) )
(or ( <= ( + T1 358 )  ( + T5 214 ) ) ( <= ( + T5 241 )( + T1 260 ) ) )
(or ( <= ( + T1 400 )  ( + T5 241 ) ) ( <= ( + T5 333 )( + T1 358 ) ) )
(or ( <= ( + T1 470 )  ( + T5 333 ) ) ( <= ( + T5 425 )( + T1 400 ) ) )
(or ( <= ( + T1 527 )  ( + T5 425 ) ) ( <= ( + T5 522 )( + T1 470 ) ) )
(or ( <= ( + T1 602 )  ( + T5 522 ) ) ( <= ( + T5 563 )( + T1 527 ) ) )
(or ( <= ( + T1 691 )  ( + T5 563 ) ) ( <= ( + T5 632 )( + T1 602 ) ) )
(or ( <= ( + T1 772 )  ( + T5 632 ) ) ( <= ( + T5 678 )( + T1 691 ) ) )
(or ( <= ( + T1 46 ) T6 ) ( <= ( + T6 82 ) T1 ) )
(or ( <= ( + T1 100 )  ( + T6 82 ) ) ( <= ( + T6 84 )( + T1 46 ) ) )
(or ( <= ( + T1 170 )  ( + T6 84 ) ) ( <= ( + T6 124 )( + T1 100 ) ) )
(or ( <= ( + T1 199 )  ( + T6 124 ) ) ( <= ( + T6 148 )( + T1 170 ) ) )
(or ( <= ( + T1 260 )  ( + T6 148 ) ) ( <= ( + T6 204 )( + T1 199 ) ) )
(or ( <= ( + T1 358 )  ( + T6 204 ) ) ( <= ( + T6 266 )( + T1 260 ) ) )
(or ( <= ( + T1 400 )  ( + T6 266 ) ) ( <= ( + T6 344 )( + T1 358 ) ) )
(or ( <= ( + T1 470 )  ( + T6 344 ) ) ( <= ( + T6 352 )( + T1 400 ) ) )
(or ( <= ( + T1 527 )  ( + T6 352 ) ) ( <= ( + T6 378 )( + T1 470 ) ) )
(or ( <= ( + T1 602 )  ( + T6 378 ) ) ( <= ( + T6 383 )( + T1 527 ) ) )
(or ( <= ( + T1 691 )  ( + T6 383 ) ) ( <= ( + T6 450 )( + T1 602 ) ) )
(or ( <= ( + T1 772 )  ( + T6 450 ) ) ( <= ( + T6 467 )( + T1 691 ) ) )
(or ( <= ( + T1 46 ) T7 ) ( <= ( + T7 69 ) T1 ) )
(or ( <= ( + T1 100 )  ( + T7 69 ) ) ( <= ( + T7 76 )( + T1 46 ) ) )
(or ( <= ( + T1 170 )  ( + T7 76 ) ) ( <= ( + T7 87 )( + T1 100 ) ) )
(or ( <= ( + T1 199 )  ( + T7 87 ) ) ( <= ( + T7 172 )( + T1 170 ) ) )
(or ( <= ( + T1 260 )  ( + T7 172 ) ) ( <= ( + T7 255 )( + T1 199 ) ) )
(or ( <= ( + T1 358 )  ( + T7 255 ) ) ( <= ( + T7 267 )( + T1 260 ) ) )
(or ( <= ( + T1 400 )  ( + T7 267 ) ) ( <= ( + T7 314 )( + T1 358 ) ) )
(or ( <= ( + T1 470 )  ( + T7 314 ) ) ( <= ( + T7 327 )( + T1 400 ) ) )
(or ( <= ( + T1 527 )  ( + T7 327 ) ) ( <= ( + T7 344 )( + T1 470 ) ) )
(or ( <= ( + T1 602 )  ( + T7 344 ) ) ( <= ( + T7 387 )( + T1 527 ) ) )
(or ( <= ( + T1 691 )  ( + T7 387 ) ) ( <= ( + T7 400 )( + T1 602 ) ) )
(or ( <= ( + T1 772 )  ( + T7 400 ) ) ( <= ( + T7 451 )( + T1 691 ) ) )
(or ( <= ( + T1 46 ) T8 ) ( <= ( + T8 69 ) T1 ) )
(or ( <= ( + T1 100 )  ( + T8 69 ) ) ( <= ( + T8 126 )( + T1 46 ) ) )
(or ( <= ( + T1 170 )  ( + T8 126 ) ) ( <= ( + T8 168 )( + T1 100 ) ) )
(or ( <= ( + T1 199 )  ( + T8 168 ) ) ( <= ( + T8 233 )( + T1 170 ) ) )
(or ( <= ( + T1 260 )  ( + T8 233 ) ) ( <= ( + T8 282 )( + T1 199 ) ) )
(or ( <= ( + T1 358 )  ( + T8 282 ) ) ( <= ( + T8 344 )( + T1 260 ) ) )
(or ( <= ( + T1 400 )  ( + T8 344 ) ) ( <= ( + T8 406 )( + T1 358 ) ) )
(or ( <= ( + T1 470 )  ( + T8 406 ) ) ( <= ( + T8 436 )( + T1 400 ) ) )
(or ( <= ( + T1 527 )  ( + T8 436 ) ) ( <= ( + T8 451 )( + T1 470 ) ) )
(or ( <= ( + T1 602 )  ( + T8 451 ) ) ( <= ( + T8 452 )( + T1 527 ) ) )
(or ( <= ( + T1 691 )  ( + T8 452 ) ) ( <= ( + T8 505 )( + T1 602 ) ) )
(or ( <= ( + T1 772 )  ( + T8 505 ) ) ( <= ( + T8 528 )( + T1 691 ) ) )
(or ( <= ( + T1 46 ) T9 ) ( <= ( + T9 63 ) T1 ) )
(or ( <= ( + T1 100 )  ( + T9 63 ) ) ( <= ( + T9 145 )( + T1 46 ) ) )
(or ( <= ( + T1 170 )  ( + T9 145 ) ) ( <= ( + T9 175 )( + T1 100 ) ) )
(or ( <= ( + T1 199 )  ( + T9 175 ) ) ( <= ( + T9 215 )( + T1 170 ) ) )
(or ( <= ( + T1 260 )  ( + T9 215 ) ) ( <= ( + T9 302 )( + T1 199 ) ) )
(or ( <= ( + T1 358 )  ( + T9 302 ) ) ( <= ( + T9 350 )( + T1 260 ) ) )
(or ( <= ( + T1 400 )  ( + T9 350 ) ) ( <= ( + T9 358 )( + T1 358 ) ) )
(or ( <= ( + T1 470 )  ( + T9 358 ) ) ( <= ( + T9 365 )( + T1 400 ) ) )
(or ( <= ( + T1 527 )  ( + T9 365 ) ) ( <= ( + T9 371 )( + T1 470 ) ) )
(or ( <= ( + T1 602 )  ( + T9 371 ) ) ( <= ( + T9 389 )( + T1 527 ) ) )
(or ( <= ( + T1 691 )  ( + T9 389 ) ) ( <= ( + T9 480 )( + T1 602 ) ) )
(or ( <= ( + T1 772 )  ( + T9 480 ) ) ( <= ( + T9 568 )( + T1 691 ) ) )
(or ( <= ( + T1 46 ) T10 ) ( <= ( + T10 82 ) T1 ) )
(or ( <= ( + T1 100 )  ( + T10 82 ) ) ( <= ( + T10 119 )( + T1 46 ) ) )
(or ( <= ( + T1 170 )  ( + T10 119 ) ) ( <= ( + T10 171 )( + T1 100 ) ) )
(or ( <= ( + T1 199 )  ( + T10 171 ) ) ( <= ( + T10 221 )( + T1 170 ) ) )
(or ( <= ( + T1 260 )  ( + T10 221 ) ) ( <= ( + T10 252 )( + T1 199 ) ) )
(or ( <= ( + T1 358 )  ( + T10 252 ) ) ( <= ( + T10 269 )( + T1 260 ) ) )
(or ( <= ( + T1 400 )  ( + T10 269 ) ) ( <= ( + T10 270 )( + T1 358 ) ) )
(or ( <= ( + T1 470 )  ( + T10 270 ) ) ( <= ( + T10 370 )( + T1 400 ) ) )
(or ( <= ( + T1 527 )  ( + T10 370 ) ) ( <= ( + T10 443 )( + T1 470 ) ) )
(or ( <= ( + T1 602 )  ( + T10 443 ) ) ( <= ( + T10 537 )( + T1 527 ) ) )
(or ( <= ( + T1 691 )  ( + T10 537 ) ) ( <= ( + T10 553 )( + T1 602 ) ) )
(or ( <= ( + T1 772 )  ( + T10 553 ) ) ( <= ( + T10 574 )( + T1 691 ) ) )
(or ( <= ( + T2 52 ) T3 ) ( <= ( + T3 58 ) T2 ) )
(or ( <= ( + T2 54 )  ( + T3 58 ) ) ( <= ( + T3 128 )( + T2 52 ) ) )
(or ( <= ( + T2 139 )  ( + T3 128 ) ) ( <= ( + T3 226 )( + T2 54 ) ) )
(or ( <= ( + T2 147 )  ( + T3 226 ) ) ( <= ( + T3 304 )( + T2 139 ) ) )
(or ( <= ( + T2 193 )  ( + T3 304 ) ) ( <= ( + T3 402 )( + T2 147 ) ) )
(or ( <= ( + T2 200 )  ( + T3 402 ) ) ( <= ( + T3 491 )( + T2 193 ) ) )
(or ( <= ( + T2 252 )  ( + T3 491 ) ) ( <= ( + T3 525 )( + T2 200 ) ) )
(or ( <= ( + T2 335 )  ( + T3 525 ) ) ( <= ( + T3 620 )( + T2 252 ) ) )
(or ( <= ( + T2 354 )  ( + T3 620 ) ) ( <= ( + T3 663 )( + T2 335 ) ) )
(or ( <= ( + T2 384 )  ( + T3 663 ) ) ( <= ( + T3 666 )( + T2 354 ) ) )
(or ( <= ( + T2 415 )  ( + T3 666 ) ) ( <= ( + T3 689 )( + T2 384 ) ) )
(or ( <= ( + T2 459 )  ( + T3 689 ) ) ( <= ( + T3 744 )( + T2 415 ) ) )
(or ( <= ( + T2 52 ) T4 ) ( <= ( + T4 52 ) T2 ) )
(or ( <= ( + T2 54 )  ( + T4 52 ) ) ( <= ( + T4 117 )( + T2 52 ) ) )
(or ( <= ( + T2 139 )  ( + T4 117 ) ) ( <= ( + T4 193 )( + T2 54 ) ) )
(or ( <= ( + T2 147 )  ( + T4 193 ) ) ( <= ( + T4 253 )( + T2 139 ) ) )
(or ( <= ( + T2 193 )  ( + T4 253 ) ) ( <= ( + T4 344 )( + T2 147 ) ) )
(or ( <= ( + T2 200 )  ( + T4 344 ) ) ( <= ( + T4 408 )( + T2 193 ) ) )
(or ( <= ( + T2 252 )  ( + T4 408 ) ) ( <= ( + T4 448 )( + T2 200 ) ) )
(or ( <= ( + T2 335 )  ( + T4 448 ) ) ( <= ( + T4 491 )( + T2 252 ) ) )
(or ( <= ( + T2 354 )  ( + T4 491 ) ) ( <= ( + T4 556 )( + T2 335 ) ) )
(or ( <= ( + T2 384 )  ( + T4 556 ) ) ( <= ( + T4 581 )( + T2 354 ) ) )
(or ( <= ( + T2 415 )  ( + T4 581 ) ) ( <= ( + T4 583 )( + T2 384 ) ) )
(or ( <= ( + T2 459 )  ( + T4 583 ) ) ( <= ( + T4 645 )( + T2 415 ) ) )
(or ( <= ( + T2 52 ) T5 ) ( <= ( + T5 31 ) T2 ) )
(or ( <= ( + T2 54 )  ( + T5 31 ) ) ( <= ( + T5 85 )( + T2 52 ) ) )
(or ( <= ( + T2 139 )  ( + T5 85 ) ) ( <= ( + T5 130 )( + T2 54 ) ) )
(or ( <= ( + T2 147 )  ( + T5 130 ) ) ( <= ( + T5 179 )( + T2 139 ) ) )
(or ( <= ( + T2 193 )  ( + T5 179 ) ) ( <= ( + T5 214 )( + T2 147 ) ) )
(or ( <= ( + T2 200 )  ( + T5 214 ) ) ( <= ( + T5 241 )( + T2 193 ) ) )
(or ( <= ( + T2 252 )  ( + T5 241 ) ) ( <= ( + T5 333 )( + T2 200 ) ) )
(or ( <= ( + T2 335 )  ( + T5 333 ) ) ( <= ( + T5 425 )( + T2 252 ) ) )
(or ( <= ( + T2 354 )  ( + T5 425 ) ) ( <= ( + T5 522 )( + T2 335 ) ) )
(or ( <= ( + T2 384 )  ( + T5 522 ) ) ( <= ( + T5 563 )( + T2 354 ) ) )
(or ( <= ( + T2 415 )  ( + T5 563 ) ) ( <= ( + T5 632 )( + T2 384 ) ) )
(or ( <= ( + T2 459 )  ( + T5 632 ) ) ( <= ( + T5 678 )( + T2 415 ) ) )
(or ( <= ( + T2 52 ) T6 ) ( <= ( + T6 82 ) T2 ) )
(or ( <= ( + T2 54 )  ( + T6 82 ) ) ( <= ( + T6 84 )( + T2 52 ) ) )
(or ( <= ( + T2 139 )  ( + T6 84 ) ) ( <= ( + T6 124 )( + T2 54 ) ) )
(or ( <= ( + T2 147 )  ( + T6 124 ) ) ( <= ( + T6 148 )( + T2 139 ) ) )
(or ( <= ( + T2 193 )  ( + T6 148 ) ) ( <= ( + T6 204 )( + T2 147 ) ) )
(or ( <= ( + T2 200 )  ( + T6 204 ) ) ( <= ( + T6 266 )( + T2 193 ) ) )
(or ( <= ( + T2 252 )  ( + T6 266 ) ) ( <= ( + T6 344 )( + T2 200 ) ) )
(or ( <= ( + T2 335 )  ( + T6 344 ) ) ( <= ( + T6 352 )( + T2 252 ) ) )
(or ( <= ( + T2 354 )  ( + T6 352 ) ) ( <= ( + T6 378 )( + T2 335 ) ) )
(or ( <= ( + T2 384 )  ( + T6 378 ) ) ( <= ( + T6 383 )( + T2 354 ) ) )
(or ( <= ( + T2 415 )  ( + T6 383 ) ) ( <= ( + T6 450 )( + T2 384 ) ) )
(or ( <= ( + T2 459 )  ( + T6 450 ) ) ( <= ( + T6 467 )( + T2 415 ) ) )
(or ( <= ( + T2 52 ) T7 ) ( <= ( + T7 69 ) T2 ) )
(or ( <= ( + T2 54 )  ( + T7 69 ) ) ( <= ( + T7 76 )( + T2 52 ) ) )
(or ( <= ( + T2 139 )  ( + T7 76 ) ) ( <= ( + T7 87 )( + T2 54 ) ) )
(or ( <= ( + T2 147 )  ( + T7 87 ) ) ( <= ( + T7 172 )( + T2 139 ) ) )
(or ( <= ( + T2 193 )  ( + T7 172 ) ) ( <= ( + T7 255 )( + T2 147 ) ) )
(or ( <= ( + T2 200 )  ( + T7 255 ) ) ( <= ( + T7 267 )( + T2 193 ) ) )
(or ( <= ( + T2 252 )  ( + T7 267 ) ) ( <= ( + T7 314 )( + T2 200 ) ) )
(or ( <= ( + T2 335 )  ( + T7 314 ) ) ( <= ( + T7 327 )( + T2 252 ) ) )
(or ( <= ( + T2 354 )  ( + T7 327 ) ) ( <= ( + T7 344 )( + T2 335 ) ) )
(or ( <= ( + T2 384 )  ( + T7 344 ) ) ( <= ( + T7 387 )( + T2 354 ) ) )
(or ( <= ( + T2 415 )  ( + T7 387 ) ) ( <= ( + T7 400 )( + T2 384 ) ) )
(or ( <= ( + T2 459 )  ( + T7 400 ) ) ( <= ( + T7 451 )( + T2 415 ) ) )
(or ( <= ( + T2 52 ) T8 ) ( <= ( + T8 69 ) T2 ) )
(or ( <= ( + T2 54 )  ( + T8 69 ) ) ( <= ( + T8 126 )( + T2 52 ) ) )
(or ( <= ( + T2 139 )  ( + T8 126 ) ) ( <= ( + T8 168 )( + T2 54 ) ) )
(or ( <= ( + T2 147 )  ( + T8 168 ) ) ( <= ( + T8 233 )( + T2 139 ) ) )
(or ( <= ( + T2 193 )  ( + T8 233 ) ) ( <= ( + T8 282 )( + T2 147 ) ) )
(or ( <= ( + T2 200 )  ( + T8 282 ) ) ( <= ( + T8 344 )( + T2 193 ) ) )
(or ( <= ( + T2 252 )  ( + T8 344 ) ) ( <= ( + T8 406 )( + T2 200 ) ) )
(or ( <= ( + T2 335 )  ( + T8 406 ) ) ( <= ( + T8 436 )( + T2 252 ) ) )
(or ( <= ( + T2 354 )  ( + T8 436 ) ) ( <= ( + T8 451 )( + T2 335 ) ) )
(or ( <= ( + T2 384 )  ( + T8 451 ) ) ( <= ( + T8 452 )( + T2 354 ) ) )
(or ( <= ( + T2 415 )  ( + T8 452 ) ) ( <= ( + T8 505 )( + T2 384 ) ) )
(or ( <= ( + T2 459 )  ( + T8 505 ) ) ( <= ( + T8 528 )( + T2 415 ) ) )
(or ( <= ( + T2 52 ) T9 ) ( <= ( + T9 63 ) T2 ) )
(or ( <= ( + T2 54 )  ( + T9 63 ) ) ( <= ( + T9 145 )( + T2 52 ) ) )
(or ( <= ( + T2 139 )  ( + T9 145 ) ) ( <= ( + T9 175 )( + T2 54 ) ) )
(or ( <= ( + T2 147 )  ( + T9 175 ) ) ( <= ( + T9 215 )( + T2 139 ) ) )
(or ( <= ( + T2 193 )  ( + T9 215 ) ) ( <= ( + T9 302 )( + T2 147 ) ) )
(or ( <= ( + T2 200 )  ( + T9 302 ) ) ( <= ( + T9 350 )( + T2 193 ) ) )
(or ( <= ( + T2 252 )  ( + T9 350 ) ) ( <= ( + T9 358 )( + T2 200 ) ) )
(or ( <= ( + T2 335 )  ( + T9 358 ) ) ( <= ( + T9 365 )( + T2 252 ) ) )
(or ( <= ( + T2 354 )  ( + T9 365 ) ) ( <= ( + T9 371 )( + T2 335 ) ) )
(or ( <= ( + T2 384 )  ( + T9 371 ) ) ( <= ( + T9 389 )( + T2 354 ) ) )
(or ( <= ( + T2 415 )  ( + T9 389 ) ) ( <= ( + T9 480 )( + T2 384 ) ) )
(or ( <= ( + T2 459 )  ( + T9 480 ) ) ( <= ( + T9 568 )( + T2 415 ) ) )
(or ( <= ( + T2 52 ) T10 ) ( <= ( + T10 82 ) T2 ) )
(or ( <= ( + T2 54 )  ( + T10 82 ) ) ( <= ( + T10 119 )( + T2 52 ) ) )
(or ( <= ( + T2 139 )  ( + T10 119 ) ) ( <= ( + T10 171 )( + T2 54 ) ) )
(or ( <= ( + T2 147 )  ( + T10 171 ) ) ( <= ( + T10 221 )( + T2 139 ) ) )
(or ( <= ( + T2 193 )  ( + T10 221 ) ) ( <= ( + T10 252 )( + T2 147 ) ) )
(or ( <= ( + T2 200 )  ( + T10 252 ) ) ( <= ( + T10 269 )( + T2 193 ) ) )
(or ( <= ( + T2 252 )  ( + T10 269 ) ) ( <= ( + T10 270 )( + T2 200 ) ) )
(or ( <= ( + T2 335 )  ( + T10 270 ) ) ( <= ( + T10 370 )( + T2 252 ) ) )
(or ( <= ( + T2 354 )  ( + T10 370 ) ) ( <= ( + T10 443 )( + T2 335 ) ) )
(or ( <= ( + T2 384 )  ( + T10 443 ) ) ( <= ( + T10 537 )( + T2 354 ) ) )
(or ( <= ( + T2 415 )  ( + T10 537 ) ) ( <= ( + T10 553 )( + T2 384 ) ) )
(or ( <= ( + T2 459 )  ( + T10 553 ) ) ( <= ( + T10 574 )( + T2 415 ) ) )
(or ( <= ( + T3 58 ) T4 ) ( <= ( + T4 52 ) T3 ) )
(or ( <= ( + T3 128 )  ( + T4 52 ) ) ( <= ( + T4 117 )( + T3 58 ) ) )
(or ( <= ( + T3 226 )  ( + T4 117 ) ) ( <= ( + T4 193 )( + T3 128 ) ) )
(or ( <= ( + T3 304 )  ( + T4 193 ) ) ( <= ( + T4 253 )( + T3 226 ) ) )
(or ( <= ( + T3 402 )  ( + T4 253 ) ) ( <= ( + T4 344 )( + T3 304 ) ) )
(or ( <= ( + T3 491 )  ( + T4 344 ) ) ( <= ( + T4 408 )( + T3 402 ) ) )
(or ( <= ( + T3 525 )  ( + T4 408 ) ) ( <= ( + T4 448 )( + T3 491 ) ) )
(or ( <= ( + T3 620 )  ( + T4 448 ) ) ( <= ( + T4 491 )( + T3 525 ) ) )
(or ( <= ( + T3 663 )  ( + T4 491 ) ) ( <= ( + T4 556 )( + T3 620 ) ) )
(or ( <= ( + T3 666 )  ( + T4 556 ) ) ( <= ( + T4 581 )( + T3 663 ) ) )
(or ( <= ( + T3 689 )  ( + T4 581 ) ) ( <= ( + T4 583 )( + T3 666 ) ) )
(or ( <= ( + T3 744 )  ( + T4 583 ) ) ( <= ( + T4 645 )( + T3 689 ) ) )
(or ( <= ( + T3 58 ) T5 ) ( <= ( + T5 31 ) T3 ) )
(or ( <= ( + T3 128 )  ( + T5 31 ) ) ( <= ( + T5 85 )( + T3 58 ) ) )
(or ( <= ( + T3 226 )  ( + T5 85 ) ) ( <= ( + T5 130 )( + T3 128 ) ) )
(or ( <= ( + T3 304 )  ( + T5 130 ) ) ( <= ( + T5 179 )( + T3 226 ) ) )
(or ( <= ( + T3 402 )  ( + T5 179 ) ) ( <= ( + T5 214 )( + T3 304 ) ) )
(or ( <= ( + T3 491 )  ( + T5 214 ) ) ( <= ( + T5 241 )( + T3 402 ) ) )
(or ( <= ( + T3 525 )  ( + T5 241 ) ) ( <= ( + T5 333 )( + T3 491 ) ) )
(or ( <= ( + T3 620 )  ( + T5 333 ) ) ( <= ( + T5 425 )( + T3 525 ) ) )
(or ( <= ( + T3 663 )  ( + T5 425 ) ) ( <= ( + T5 522 )( + T3 620 ) ) )
(or ( <= ( + T3 666 )  ( + T5 522 ) ) ( <= ( + T5 563 )( + T3 663 ) ) )
(or ( <= ( + T3 689 )  ( + T5 563 ) ) ( <= ( + T5 632 )( + T3 666 ) ) )
(or ( <= ( + T3 744 )  ( + T5 632 ) ) ( <= ( + T5 678 )( + T3 689 ) ) )
(or ( <= ( + T3 58 ) T6 ) ( <= ( + T6 82 ) T3 ) )
(or ( <= ( + T3 128 )  ( + T6 82 ) ) ( <= ( + T6 84 )( + T3 58 ) ) )
(or ( <= ( + T3 226 )  ( + T6 84 ) ) ( <= ( + T6 124 )( + T3 128 ) ) )
(or ( <= ( + T3 304 )  ( + T6 124 ) ) ( <= ( + T6 148 )( + T3 226 ) ) )
(or ( <= ( + T3 402 )  ( + T6 148 ) ) ( <= ( + T6 204 )( + T3 304 ) ) )
(or ( <= ( + T3 491 )  ( + T6 204 ) ) ( <= ( + T6 266 )( + T3 402 ) ) )
(or ( <= ( + T3 525 )  ( + T6 266 ) ) ( <= ( + T6 344 )( + T3 491 ) ) )
(or ( <= ( + T3 620 )  ( + T6 344 ) ) ( <= ( + T6 352 )( + T3 525 ) ) )
(or ( <= ( + T3 663 )  ( + T6 352 ) ) ( <= ( + T6 378 )( + T3 620 ) ) )
(or ( <= ( + T3 666 )  ( + T6 378 ) ) ( <= ( + T6 383 )( + T3 663 ) ) )
(or ( <= ( + T3 689 )  ( + T6 383 ) ) ( <= ( + T6 450 )( + T3 666 ) ) )
(or ( <= ( + T3 744 )  ( + T6 450 ) ) ( <= ( + T6 467 )( + T3 689 ) ) )
(or ( <= ( + T3 58 ) T7 ) ( <= ( + T7 69 ) T3 ) )
(or ( <= ( + T3 128 )  ( + T7 69 ) ) ( <= ( + T7 76 )( + T3 58 ) ) )
(or ( <= ( + T3 226 )  ( + T7 76 ) ) ( <= ( + T7 87 )( + T3 128 ) ) )
(or ( <= ( + T3 304 )  ( + T7 87 ) ) ( <= ( + T7 172 )( + T3 226 ) ) )
(or ( <= ( + T3 402 )  ( + T7 172 ) ) ( <= ( + T7 255 )( + T3 304 ) ) )
(or ( <= ( + T3 491 )  ( + T7 255 ) ) ( <= ( + T7 267 )( + T3 402 ) ) )
(or ( <= ( + T3 525 )  ( + T7 267 ) ) ( <= ( + T7 314 )( + T3 491 ) ) )
(or ( <= ( + T3 620 )  ( + T7 314 ) ) ( <= ( + T7 327 )( + T3 525 ) ) )
(or ( <= ( + T3 663 )  ( + T7 327 ) ) ( <= ( + T7 344 )( + T3 620 ) ) )
(or ( <= ( + T3 666 )  ( + T7 344 ) ) ( <= ( + T7 387 )( + T3 663 ) ) )
(or ( <= ( + T3 689 )  ( + T7 387 ) ) ( <= ( + T7 400 )( + T3 666 ) ) )
(or ( <= ( + T3 744 )  ( + T7 400 ) ) ( <= ( + T7 451 )( + T3 689 ) ) )
(or ( <= ( + T3 58 ) T8 ) ( <= ( + T8 69 ) T3 ) )
(or ( <= ( + T3 128 )  ( + T8 69 ) ) ( <= ( + T8 126 )( + T3 58 ) ) )
(or ( <= ( + T3 226 )  ( + T8 126 ) ) ( <= ( + T8 168 )( + T3 128 ) ) )
(or ( <= ( + T3 304 )  ( + T8 168 ) ) ( <= ( + T8 233 )( + T3 226 ) ) )
(or ( <= ( + T3 402 )  ( + T8 233 ) ) ( <= ( + T8 282 )( + T3 304 ) ) )
(or ( <= ( + T3 491 )  ( + T8 282 ) ) ( <= ( + T8 344 )( + T3 402 ) ) )
(or ( <= ( + T3 525 )  ( + T8 344 ) ) ( <= ( + T8 406 )( + T3 491 ) ) )
(or ( <= ( + T3 620 )  ( + T8 406 ) ) ( <= ( + T8 436 )( + T3 525 ) ) )
(or ( <= ( + T3 663 )  ( + T8 436 ) ) ( <= ( + T8 451 )( + T3 620 ) ) )
(or ( <= ( + T3 666 )  ( + T8 451 ) ) ( <= ( + T8 452 )( + T3 663 ) ) )
(or ( <= ( + T3 689 )  ( + T8 452 ) ) ( <= ( + T8 505 )( + T3 666 ) ) )
(or ( <= ( + T3 744 )  ( + T8 505 ) ) ( <= ( + T8 528 )( + T3 689 ) ) )
(or ( <= ( + T3 58 ) T9 ) ( <= ( + T9 63 ) T3 ) )
(or ( <= ( + T3 128 )  ( + T9 63 ) ) ( <= ( + T9 145 )( + T3 58 ) ) )
(or ( <= ( + T3 226 )  ( + T9 145 ) ) ( <= ( + T9 175 )( + T3 128 ) ) )
(or ( <= ( + T3 304 )  ( + T9 175 ) ) ( <= ( + T9 215 )( + T3 226 ) ) )
(or ( <= ( + T3 402 )  ( + T9 215 ) ) ( <= ( + T9 302 )( + T3 304 ) ) )
(or ( <= ( + T3 491 )  ( + T9 302 ) ) ( <= ( + T9 350 )( + T3 402 ) ) )
(or ( <= ( + T3 525 )  ( + T9 350 ) ) ( <= ( + T9 358 )( + T3 491 ) ) )
(or ( <= ( + T3 620 )  ( + T9 358 ) ) ( <= ( + T9 365 )( + T3 525 ) ) )
(or ( <= ( + T3 663 )  ( + T9 365 ) ) ( <= ( + T9 371 )( + T3 620 ) ) )
(or ( <= ( + T3 666 )  ( + T9 371 ) ) ( <= ( + T9 389 )( + T3 663 ) ) )
(or ( <= ( + T3 689 )  ( + T9 389 ) ) ( <= ( + T9 480 )( + T3 666 ) ) )
(or ( <= ( + T3 744 )  ( + T9 480 ) ) ( <= ( + T9 568 )( + T3 689 ) ) )
(or ( <= ( + T3 58 ) T10 ) ( <= ( + T10 82 ) T3 ) )
(or ( <= ( + T3 128 )  ( + T10 82 ) ) ( <= ( + T10 119 )( + T3 58 ) ) )
(or ( <= ( + T3 226 )  ( + T10 119 ) ) ( <= ( + T10 171 )( + T3 128 ) ) )
(or ( <= ( + T3 304 )  ( + T10 171 ) ) ( <= ( + T10 221 )( + T3 226 ) ) )
(or ( <= ( + T3 402 )  ( + T10 221 ) ) ( <= ( + T10 252 )( + T3 304 ) ) )
(or ( <= ( + T3 491 )  ( + T10 252 ) ) ( <= ( + T10 269 )( + T3 402 ) ) )
(or ( <= ( + T3 525 )  ( + T10 269 ) ) ( <= ( + T10 270 )( + T3 491 ) ) )
(or ( <= ( + T3 620 )  ( + T10 270 ) ) ( <= ( + T10 370 )( + T3 525 ) ) )
(or ( <= ( + T3 663 )  ( + T10 370 ) ) ( <= ( + T10 443 )( + T3 620 ) ) )
(or ( <= ( + T3 666 )  ( + T10 443 ) ) ( <= ( + T10 537 )( + T3 663 ) ) )
(or ( <= ( + T3 689 )  ( + T10 537 ) ) ( <= ( + T10 553 )( + T3 666 ) ) )
(or ( <= ( + T3 744 )  ( + T10 553 ) ) ( <= ( + T10 574 )( + T3 689 ) ) )
(or ( <= ( + T4 52 ) T5 ) ( <= ( + T5 31 ) T4 ) )
(or ( <= ( + T4 117 )  ( + T5 31 ) ) ( <= ( + T5 85 )( + T4 52 ) ) )
(or ( <= ( + T4 193 )  ( + T5 85 ) ) ( <= ( + T5 130 )( + T4 117 ) ) )
(or ( <= ( + T4 253 )  ( + T5 130 ) ) ( <= ( + T5 179 )( + T4 193 ) ) )
(or ( <= ( + T4 344 )  ( + T5 179 ) ) ( <= ( + T5 214 )( + T4 253 ) ) )
(or ( <= ( + T4 408 )  ( + T5 214 ) ) ( <= ( + T5 241 )( + T4 344 ) ) )
(or ( <= ( + T4 448 )  ( + T5 241 ) ) ( <= ( + T5 333 )( + T4 408 ) ) )
(or ( <= ( + T4 491 )  ( + T5 333 ) ) ( <= ( + T5 425 )( + T4 448 ) ) )
(or ( <= ( + T4 556 )  ( + T5 425 ) ) ( <= ( + T5 522 )( + T4 491 ) ) )
(or ( <= ( + T4 581 )  ( + T5 522 ) ) ( <= ( + T5 563 )( + T4 556 ) ) )
(or ( <= ( + T4 583 )  ( + T5 563 ) ) ( <= ( + T5 632 )( + T4 581 ) ) )
(or ( <= ( + T4 645 )  ( + T5 632 ) ) ( <= ( + T5 678 )( + T4 583 ) ) )
(or ( <= ( + T4 52 ) T6 ) ( <= ( + T6 82 ) T4 ) )
(or ( <= ( + T4 117 )  ( + T6 82 ) ) ( <= ( + T6 84 )( + T4 52 ) ) )
(or ( <= ( + T4 193 )  ( + T6 84 ) ) ( <= ( + T6 124 )( + T4 117 ) ) )
(or ( <= ( + T4 253 )  ( + T6 124 ) ) ( <= ( + T6 148 )( + T4 193 ) ) )
(or ( <= ( + T4 344 )  ( + T6 148 ) ) ( <= ( + T6 204 )( + T4 253 ) ) )
(or ( <= ( + T4 408 )  ( + T6 204 ) ) ( <= ( + T6 266 )( + T4 344 ) ) )
(or ( <= ( + T4 448 )  ( + T6 266 ) ) ( <= ( + T6 344 )( + T4 408 ) ) )
(or ( <= ( + T4 491 )  ( + T6 344 ) ) ( <= ( + T6 352 )( + T4 448 ) ) )
(or ( <= ( + T4 556 )  ( + T6 352 ) ) ( <= ( + T6 378 )( + T4 491 ) ) )
(or ( <= ( + T4 581 )  ( + T6 378 ) ) ( <= ( + T6 383 )( + T4 556 ) ) )
(or ( <= ( + T4 583 )  ( + T6 383 ) ) ( <= ( + T6 450 )( + T4 581 ) ) )
(or ( <= ( + T4 645 )  ( + T6 450 ) ) ( <= ( + T6 467 )( + T4 583 ) ) )
(or ( <= ( + T4 52 ) T7 ) ( <= ( + T7 69 ) T4 ) )
(or ( <= ( + T4 117 )  ( + T7 69 ) ) ( <= ( + T7 76 )( + T4 52 ) ) )
(or ( <= ( + T4 193 )  ( + T7 76 ) ) ( <= ( + T7 87 )( + T4 117 ) ) )
(or ( <= ( + T4 253 )  ( + T7 87 ) ) ( <= ( + T7 172 )( + T4 193 ) ) )
(or ( <= ( + T4 344 )  ( + T7 172 ) ) ( <= ( + T7 255 )( + T4 253 ) ) )
(or ( <= ( + T4 408 )  ( + T7 255 ) ) ( <= ( + T7 267 )( + T4 344 ) ) )
(or ( <= ( + T4 448 )  ( + T7 267 ) ) ( <= ( + T7 314 )( + T4 408 ) ) )
(or ( <= ( + T4 491 )  ( + T7 314 ) ) ( <= ( + T7 327 )( + T4 448 ) ) )
(or ( <= ( + T4 556 )  ( + T7 327 ) ) ( <= ( + T7 344 )( + T4 491 ) ) )
(or ( <= ( + T4 581 )  ( + T7 344 ) ) ( <= ( + T7 387 )( + T4 556 ) ) )
(or ( <= ( + T4 583 )  ( + T7 387 ) ) ( <= ( + T7 400 )( + T4 581 ) ) )
(or ( <= ( + T4 645 )  ( + T7 400 ) ) ( <= ( + T7 451 )( + T4 583 ) ) )
(or ( <= ( + T4 52 ) T8 ) ( <= ( + T8 69 ) T4 ) )
(or ( <= ( + T4 117 )  ( + T8 69 ) ) ( <= ( + T8 126 )( + T4 52 ) ) )
(or ( <= ( + T4 193 )  ( + T8 126 ) ) ( <= ( + T8 168 )( + T4 117 ) ) )
(or ( <= ( + T4 253 )  ( + T8 168 ) ) ( <= ( + T8 233 )( + T4 193 ) ) )
(or ( <= ( + T4 344 )  ( + T8 233 ) ) ( <= ( + T8 282 )( + T4 253 ) ) )
(or ( <= ( + T4 408 )  ( + T8 282 ) ) ( <= ( + T8 344 )( + T4 344 ) ) )
(or ( <= ( + T4 448 )  ( + T8 344 ) ) ( <= ( + T8 406 )( + T4 408 ) ) )
(or ( <= ( + T4 491 )  ( + T8 406 ) ) ( <= ( + T8 436 )( + T4 448 ) ) )
(or ( <= ( + T4 556 )  ( + T8 436 ) ) ( <= ( + T8 451 )( + T4 491 ) ) )
(or ( <= ( + T4 581 )  ( + T8 451 ) ) ( <= ( + T8 452 )( + T4 556 ) ) )
(or ( <= ( + T4 583 )  ( + T8 452 ) ) ( <= ( + T8 505 )( + T4 581 ) ) )
(or ( <= ( + T4 645 )  ( + T8 505 ) ) ( <= ( + T8 528 )( + T4 583 ) ) )
(or ( <= ( + T4 52 ) T9 ) ( <= ( + T9 63 ) T4 ) )
(or ( <= ( + T4 117 )  ( + T9 63 ) ) ( <= ( + T9 145 )( + T4 52 ) ) )
(or ( <= ( + T4 193 )  ( + T9 145 ) ) ( <= ( + T9 175 )( + T4 117 ) ) )
(or ( <= ( + T4 253 )  ( + T9 175 ) ) ( <= ( + T9 215 )( + T4 193 ) ) )
(or ( <= ( + T4 344 )  ( + T9 215 ) ) ( <= ( + T9 302 )( + T4 253 ) ) )
(or ( <= ( + T4 408 )  ( + T9 302 ) ) ( <= ( + T9 350 )( + T4 344 ) ) )
(or ( <= ( + T4 448 )  ( + T9 350 ) ) ( <= ( + T9 358 )( + T4 408 ) ) )
(or ( <= ( + T4 491 )  ( + T9 358 ) ) ( <= ( + T9 365 )( + T4 448 ) ) )
(or ( <= ( + T4 556 )  ( + T9 365 ) ) ( <= ( + T9 371 )( + T4 491 ) ) )
(or ( <= ( + T4 581 )  ( + T9 371 ) ) ( <= ( + T9 389 )( + T4 556 ) ) )
(or ( <= ( + T4 583 )  ( + T9 389 ) ) ( <= ( + T9 480 )( + T4 581 ) ) )
(or ( <= ( + T4 645 )  ( + T9 480 ) ) ( <= ( + T9 568 )( + T4 583 ) ) )
(or ( <= ( + T4 52 ) T10 ) ( <= ( + T10 82 ) T4 ) )
(or ( <= ( + T4 117 )  ( + T10 82 ) ) ( <= ( + T10 119 )( + T4 52 ) ) )
(or ( <= ( + T4 193 )  ( + T10 119 ) ) ( <= ( + T10 171 )( + T4 117 ) ) )
(or ( <= ( + T4 253 )  ( + T10 171 ) ) ( <= ( + T10 221 )( + T4 193 ) ) )
(or ( <= ( + T4 344 )  ( + T10 221 ) ) ( <= ( + T10 252 )( + T4 253 ) ) )
(or ( <= ( + T4 408 )  ( + T10 252 ) ) ( <= ( + T10 269 )( + T4 344 ) ) )
(or ( <= ( + T4 448 )  ( + T10 269 ) ) ( <= ( + T10 270 )( + T4 408 ) ) )
(or ( <= ( + T4 491 )  ( + T10 270 ) ) ( <= ( + T10 370 )( + T4 448 ) ) )
(or ( <= ( + T4 556 )  ( + T10 370 ) ) ( <= ( + T10 443 )( + T4 491 ) ) )
(or ( <= ( + T4 581 )  ( + T10 443 ) ) ( <= ( + T10 537 )( + T4 556 ) ) )
(or ( <= ( + T4 583 )  ( + T10 537 ) ) ( <= ( + T10 553 )( + T4 581 ) ) )
(or ( <= ( + T4 645 )  ( + T10 553 ) ) ( <= ( + T10 574 )( + T4 583 ) ) )
(or ( <= ( + T5 31 ) T6 ) ( <= ( + T6 82 ) T5 ) )
(or ( <= ( + T5 85 )  ( + T6 82 ) ) ( <= ( + T6 84 )( + T5 31 ) ) )
(or ( <= ( + T5 130 )  ( + T6 84 ) ) ( <= ( + T6 124 )( + T5 85 ) ) )
(or ( <= ( + T5 179 )  ( + T6 124 ) ) ( <= ( + T6 148 )( + T5 130 ) ) )
(or ( <= ( + T5 214 )  ( + T6 148 ) ) ( <= ( + T6 204 )( + T5 179 ) ) )
(or ( <= ( + T5 241 )  ( + T6 204 ) ) ( <= ( + T6 266 )( + T5 214 ) ) )
(or ( <= ( + T5 333 )  ( + T6 266 ) ) ( <= ( + T6 344 )( + T5 241 ) ) )
(or ( <= ( + T5 425 )  ( + T6 344 ) ) ( <= ( + T6 352 )( + T5 333 ) ) )
(or ( <= ( + T5 522 )  ( + T6 352 ) ) ( <= ( + T6 378 )( + T5 425 ) ) )
(or ( <= ( + T5 563 )  ( + T6 378 ) ) ( <= ( + T6 383 )( + T5 522 ) ) )
(or ( <= ( + T5 632 )  ( + T6 383 ) ) ( <= ( + T6 450 )( + T5 563 ) ) )
(or ( <= ( + T5 678 )  ( + T6 450 ) ) ( <= ( + T6 467 )( + T5 632 ) ) )
(or ( <= ( + T5 31 ) T7 ) ( <= ( + T7 69 ) T5 ) )
(or ( <= ( + T5 85 )  ( + T7 69 ) ) ( <= ( + T7 76 )( + T5 31 ) ) )
(or ( <= ( + T5 130 )  ( + T7 76 ) ) ( <= ( + T7 87 )( + T5 85 ) ) )
(or ( <= ( + T5 179 )  ( + T7 87 ) ) ( <= ( + T7 172 )( + T5 130 ) ) )
(or ( <= ( + T5 214 )  ( + T7 172 ) ) ( <= ( + T7 255 )( + T5 179 ) ) )
(or ( <= ( + T5 241 )  ( + T7 255 ) ) ( <= ( + T7 267 )( + T5 214 ) ) )
(or ( <= ( + T5 333 )  ( + T7 267 ) ) ( <= ( + T7 314 )( + T5 241 ) ) )
(or ( <= ( + T5 425 )  ( + T7 314 ) ) ( <= ( + T7 327 )( + T5 333 ) ) )
(or ( <= ( + T5 522 )  ( + T7 327 ) ) ( <= ( + T7 344 )( + T5 425 ) ) )
(or ( <= ( + T5 563 )  ( + T7 344 ) ) ( <= ( + T7 387 )( + T5 522 ) ) )
(or ( <= ( + T5 632 )  ( + T7 387 ) ) ( <= ( + T7 400 )( + T5 563 ) ) )
(or ( <= ( + T5 678 )  ( + T7 400 ) ) ( <= ( + T7 451 )( + T5 632 ) ) )
(or ( <= ( + T5 31 ) T8 ) ( <= ( + T8 69 ) T5 ) )
(or ( <= ( + T5 85 )  ( + T8 69 ) ) ( <= ( + T8 126 )( + T5 31 ) ) )
(or ( <= ( + T5 130 )  ( + T8 126 ) ) ( <= ( + T8 168 )( + T5 85 ) ) )
(or ( <= ( + T5 179 )  ( + T8 168 ) ) ( <= ( + T8 233 )( + T5 130 ) ) )
(or ( <= ( + T5 214 )  ( + T8 233 ) ) ( <= ( + T8 282 )( + T5 179 ) ) )
(or ( <= ( + T5 241 )  ( + T8 282 ) ) ( <= ( + T8 344 )( + T5 214 ) ) )
(or ( <= ( + T5 333 )  ( + T8 344 ) ) ( <= ( + T8 406 )( + T5 241 ) ) )
(or ( <= ( + T5 425 )  ( + T8 406 ) ) ( <= ( + T8 436 )( + T5 333 ) ) )
(or ( <= ( + T5 522 )  ( + T8 436 ) ) ( <= ( + T8 451 )( + T5 425 ) ) )
(or ( <= ( + T5 563 )  ( + T8 451 ) ) ( <= ( + T8 452 )( + T5 522 ) ) )
(or ( <= ( + T5 632 )  ( + T8 452 ) ) ( <= ( + T8 505 )( + T5 563 ) ) )
(or ( <= ( + T5 678 )  ( + T8 505 ) ) ( <= ( + T8 528 )( + T5 632 ) ) )
(or ( <= ( + T5 31 ) T9 ) ( <= ( + T9 63 ) T5 ) )
(or ( <= ( + T5 85 )  ( + T9 63 ) ) ( <= ( + T9 145 )( + T5 31 ) ) )
(or ( <= ( + T5 130 )  ( + T9 145 ) ) ( <= ( + T9 175 )( + T5 85 ) ) )
(or ( <= ( + T5 179 )  ( + T9 175 ) ) ( <= ( + T9 215 )( + T5 130 ) ) )
(or ( <= ( + T5 214 )  ( + T9 215 ) ) ( <= ( + T9 302 )( + T5 179 ) ) )
(or ( <= ( + T5 241 )  ( + T9 302 ) ) ( <= ( + T9 350 )( + T5 214 ) ) )
(or ( <= ( + T5 333 )  ( + T9 350 ) ) ( <= ( + T9 358 )( + T5 241 ) ) )
(or ( <= ( + T5 425 )  ( + T9 358 ) ) ( <= ( + T9 365 )( + T5 333 ) ) )
(or ( <= ( + T5 522 )  ( + T9 365 ) ) ( <= ( + T9 371 )( + T5 425 ) ) )
(or ( <= ( + T5 563 )  ( + T9 371 ) ) ( <= ( + T9 389 )( + T5 522 ) ) )
(or ( <= ( + T5 632 )  ( + T9 389 ) ) ( <= ( + T9 480 )( + T5 563 ) ) )
(or ( <= ( + T5 678 )  ( + T9 480 ) ) ( <= ( + T9 568 )( + T5 632 ) ) )
(or ( <= ( + T5 31 ) T10 ) ( <= ( + T10 82 ) T5 ) )
(or ( <= ( + T5 85 )  ( + T10 82 ) ) ( <= ( + T10 119 )( + T5 31 ) ) )
(or ( <= ( + T5 130 )  ( + T10 119 ) ) ( <= ( + T10 171 )( + T5 85 ) ) )
(or ( <= ( + T5 179 )  ( + T10 171 ) ) ( <= ( + T10 221 )( + T5 130 ) ) )
(or ( <= ( + T5 214 )  ( + T10 221 ) ) ( <= ( + T10 252 )( + T5 179 ) ) )
(or ( <= ( + T5 241 )  ( + T10 252 ) ) ( <= ( + T10 269 )( + T5 214 ) ) )
(or ( <= ( + T5 333 )  ( + T10 269 ) ) ( <= ( + T10 270 )( + T5 241 ) ) )
(or ( <= ( + T5 425 )  ( + T10 270 ) ) ( <= ( + T10 370 )( + T5 333 ) ) )
(or ( <= ( + T5 522 )  ( + T10 370 ) ) ( <= ( + T10 443 )( + T5 425 ) ) )
(or ( <= ( + T5 563 )  ( + T10 443 ) ) ( <= ( + T10 537 )( + T5 522 ) ) )
(or ( <= ( + T5 632 )  ( + T10 537 ) ) ( <= ( + T10 553 )( + T5 563 ) ) )
(or ( <= ( + T5 678 )  ( + T10 553 ) ) ( <= ( + T10 574 )( + T5 632 ) ) )
(or ( <= ( + T6 82 ) T7 ) ( <= ( + T7 69 ) T6 ) )
(or ( <= ( + T6 84 )  ( + T7 69 ) ) ( <= ( + T7 76 )( + T6 82 ) ) )
(or ( <= ( + T6 124 )  ( + T7 76 ) ) ( <= ( + T7 87 )( + T6 84 ) ) )
(or ( <= ( + T6 148 )  ( + T7 87 ) ) ( <= ( + T7 172 )( + T6 124 ) ) )
(or ( <= ( + T6 204 )  ( + T7 172 ) ) ( <= ( + T7 255 )( + T6 148 ) ) )
(or ( <= ( + T6 266 )  ( + T7 255 ) ) ( <= ( + T7 267 )( + T6 204 ) ) )
(or ( <= ( + T6 344 )  ( + T7 267 ) ) ( <= ( + T7 314 )( + T6 266 ) ) )
(or ( <= ( + T6 352 )  ( + T7 314 ) ) ( <= ( + T7 327 )( + T6 344 ) ) )
(or ( <= ( + T6 378 )  ( + T7 327 ) ) ( <= ( + T7 344 )( + T6 352 ) ) )
(or ( <= ( + T6 383 )  ( + T7 344 ) ) ( <= ( + T7 387 )( + T6 378 ) ) )
(or ( <= ( + T6 450 )  ( + T7 387 ) ) ( <= ( + T7 400 )( + T6 383 ) ) )
(or ( <= ( + T6 467 )  ( + T7 400 ) ) ( <= ( + T7 451 )( + T6 450 ) ) )
(or ( <= ( + T6 82 ) T8 ) ( <= ( + T8 69 ) T6 ) )
(or ( <= ( + T6 84 )  ( + T8 69 ) ) ( <= ( + T8 126 )( + T6 82 ) ) )
(or ( <= ( + T6 124 )  ( + T8 126 ) ) ( <= ( + T8 168 )( + T6 84 ) ) )
(or ( <= ( + T6 148 )  ( + T8 168 ) ) ( <= ( + T8 233 )( + T6 124 ) ) )
(or ( <= ( + T6 204 )  ( + T8 233 ) ) ( <= ( + T8 282 )( + T6 148 ) ) )
(or ( <= ( + T6 266 )  ( + T8 282 ) ) ( <= ( + T8 344 )( + T6 204 ) ) )
(or ( <= ( + T6 344 )  ( + T8 344 ) ) ( <= ( + T8 406 )( + T6 266 ) ) )
(or ( <= ( + T6 352 )  ( + T8 406 ) ) ( <= ( + T8 436 )( + T6 344 ) ) )
(or ( <= ( + T6 378 )  ( + T8 436 ) ) ( <= ( + T8 451 )( + T6 352 ) ) )
(or ( <= ( + T6 383 )  ( + T8 451 ) ) ( <= ( + T8 452 )( + T6 378 ) ) )
(or ( <= ( + T6 450 )  ( + T8 452 ) ) ( <= ( + T8 505 )( + T6 383 ) ) )
(or ( <= ( + T6 467 )  ( + T8 505 ) ) ( <= ( + T8 528 )( + T6 450 ) ) )
(or ( <= ( + T6 82 ) T9 ) ( <= ( + T9 63 ) T6 ) )
(or ( <= ( + T6 84 )  ( + T9 63 ) ) ( <= ( + T9 145 )( + T6 82 ) ) )
(or ( <= ( + T6 124 )  ( + T9 145 ) ) ( <= ( + T9 175 )( + T6 84 ) ) )
(or ( <= ( + T6 148 )  ( + T9 175 ) ) ( <= ( + T9 215 )( + T6 124 ) ) )
(or ( <= ( + T6 204 )  ( + T9 215 ) ) ( <= ( + T9 302 )( + T6 148 ) ) )
(or ( <= ( + T6 266 )  ( + T9 302 ) ) ( <= ( + T9 350 )( + T6 204 ) ) )
(or ( <= ( + T6 344 )  ( + T9 350 ) ) ( <= ( + T9 358 )( + T6 266 ) ) )
(or ( <= ( + T6 352 )  ( + T9 358 ) ) ( <= ( + T9 365 )( + T6 344 ) ) )
(or ( <= ( + T6 378 )  ( + T9 365 ) ) ( <= ( + T9 371 )( + T6 352 ) ) )
(or ( <= ( + T6 383 )  ( + T9 371 ) ) ( <= ( + T9 389 )( + T6 378 ) ) )
(or ( <= ( + T6 450 )  ( + T9 389 ) ) ( <= ( + T9 480 )( + T6 383 ) ) )
(or ( <= ( + T6 467 )  ( + T9 480 ) ) ( <= ( + T9 568 )( + T6 450 ) ) )
(or ( <= ( + T6 82 ) T10 ) ( <= ( + T10 82 ) T6 ) )
(or ( <= ( + T6 84 )  ( + T10 82 ) ) ( <= ( + T10 119 )( + T6 82 ) ) )
(or ( <= ( + T6 124 )  ( + T10 119 ) ) ( <= ( + T10 171 )( + T6 84 ) ) )
(or ( <= ( + T6 148 )  ( + T10 171 ) ) ( <= ( + T10 221 )( + T6 124 ) ) )
(or ( <= ( + T6 204 )  ( + T10 221 ) ) ( <= ( + T10 252 )( + T6 148 ) ) )
(or ( <= ( + T6 266 )  ( + T10 252 ) ) ( <= ( + T10 269 )( + T6 204 ) ) )
(or ( <= ( + T6 344 )  ( + T10 269 ) ) ( <= ( + T10 270 )( + T6 266 ) ) )
(or ( <= ( + T6 352 )  ( + T10 270 ) ) ( <= ( + T10 370 )( + T6 344 ) ) )
(or ( <= ( + T6 378 )  ( + T10 370 ) ) ( <= ( + T10 443 )( + T6 352 ) ) )
(or ( <= ( + T6 383 )  ( + T10 443 ) ) ( <= ( + T10 537 )( + T6 378 ) ) )
(or ( <= ( + T6 450 )  ( + T10 537 ) ) ( <= ( + T10 553 )( + T6 383 ) ) )
(or ( <= ( + T6 467 )  ( + T10 553 ) ) ( <= ( + T10 574 )( + T6 450 ) ) )
(or ( <= ( + T7 69 ) T8 ) ( <= ( + T8 69 ) T7 ) )
(or ( <= ( + T7 76 )  ( + T8 69 ) ) ( <= ( + T8 126 )( + T7 69 ) ) )
(or ( <= ( + T7 87 )  ( + T8 126 ) ) ( <= ( + T8 168 )( + T7 76 ) ) )
(or ( <= ( + T7 172 )  ( + T8 168 ) ) ( <= ( + T8 233 )( + T7 87 ) ) )
(or ( <= ( + T7 255 )  ( + T8 233 ) ) ( <= ( + T8 282 )( + T7 172 ) ) )
(or ( <= ( + T7 267 )  ( + T8 282 ) ) ( <= ( + T8 344 )( + T7 255 ) ) )
(or ( <= ( + T7 314 )  ( + T8 344 ) ) ( <= ( + T8 406 )( + T7 267 ) ) )
(or ( <= ( + T7 327 )  ( + T8 406 ) ) ( <= ( + T8 436 )( + T7 314 ) ) )
(or ( <= ( + T7 344 )  ( + T8 436 ) ) ( <= ( + T8 451 )( + T7 327 ) ) )
(or ( <= ( + T7 387 )  ( + T8 451 ) ) ( <= ( + T8 452 )( + T7 344 ) ) )
(or ( <= ( + T7 400 )  ( + T8 452 ) ) ( <= ( + T8 505 )( + T7 387 ) ) )
(or ( <= ( + T7 451 )  ( + T8 505 ) ) ( <= ( + T8 528 )( + T7 400 ) ) )
(or ( <= ( + T7 69 ) T9 ) ( <= ( + T9 63 ) T7 ) )
(or ( <= ( + T7 76 )  ( + T9 63 ) ) ( <= ( + T9 145 )( + T7 69 ) ) )
(or ( <= ( + T7 87 )  ( + T9 145 ) ) ( <= ( + T9 175 )( + T7 76 ) ) )
(or ( <= ( + T7 172 )  ( + T9 175 ) ) ( <= ( + T9 215 )( + T7 87 ) ) )
(or ( <= ( + T7 255 )  ( + T9 215 ) ) ( <= ( + T9 302 )( + T7 172 ) ) )
(or ( <= ( + T7 267 )  ( + T9 302 ) ) ( <= ( + T9 350 )( + T7 255 ) ) )
(or ( <= ( + T7 314 )  ( + T9 350 ) ) ( <= ( + T9 358 )( + T7 267 ) ) )
(or ( <= ( + T7 327 )  ( + T9 358 ) ) ( <= ( + T9 365 )( + T7 314 ) ) )
(or ( <= ( + T7 344 )  ( + T9 365 ) ) ( <= ( + T9 371 )( + T7 327 ) ) )
(or ( <= ( + T7 387 )  ( + T9 371 ) ) ( <= ( + T9 389 )( + T7 344 ) ) )
(or ( <= ( + T7 400 )  ( + T9 389 ) ) ( <= ( + T9 480 )( + T7 387 ) ) )
(or ( <= ( + T7 451 )  ( + T9 480 ) ) ( <= ( + T9 568 )( + T7 400 ) ) )
(or ( <= ( + T7 69 ) T10 ) ( <= ( + T10 82 ) T7 ) )
(or ( <= ( + T7 76 )  ( + T10 82 ) ) ( <= ( + T10 119 )( + T7 69 ) ) )
(or ( <= ( + T7 87 )  ( + T10 119 ) ) ( <= ( + T10 171 )( + T7 76 ) ) )
(or ( <= ( + T7 172 )  ( + T10 171 ) ) ( <= ( + T10 221 )( + T7 87 ) ) )
(or ( <= ( + T7 255 )  ( + T10 221 ) ) ( <= ( + T10 252 )( + T7 172 ) ) )
(or ( <= ( + T7 267 )  ( + T10 252 ) ) ( <= ( + T10 269 )( + T7 255 ) ) )
(or ( <= ( + T7 314 )  ( + T10 269 ) ) ( <= ( + T10 270 )( + T7 267 ) ) )
(or ( <= ( + T7 327 )  ( + T10 270 ) ) ( <= ( + T10 370 )( + T7 314 ) ) )
(or ( <= ( + T7 344 )  ( + T10 370 ) ) ( <= ( + T10 443 )( + T7 327 ) ) )
(or ( <= ( + T7 387 )  ( + T10 443 ) ) ( <= ( + T10 537 )( + T7 344 ) ) )
(or ( <= ( + T7 400 )  ( + T10 537 ) ) ( <= ( + T10 553 )( + T7 387 ) ) )
(or ( <= ( + T7 451 )  ( + T10 553 ) ) ( <= ( + T10 574 )( + T7 400 ) ) )
(or ( <= ( + T8 69 ) T9 ) ( <= ( + T9 63 ) T8 ) )
(or ( <= ( + T8 126 )  ( + T9 63 ) ) ( <= ( + T9 145 )( + T8 69 ) ) )
(or ( <= ( + T8 168 )  ( + T9 145 ) ) ( <= ( + T9 175 )( + T8 126 ) ) )
(or ( <= ( + T8 233 )  ( + T9 175 ) ) ( <= ( + T9 215 )( + T8 168 ) ) )
(or ( <= ( + T8 282 )  ( + T9 215 ) ) ( <= ( + T9 302 )( + T8 233 ) ) )
(or ( <= ( + T8 344 )  ( + T9 302 ) ) ( <= ( + T9 350 )( + T8 282 ) ) )
(or ( <= ( + T8 406 )  ( + T9 350 ) ) ( <= ( + T9 358 )( + T8 344 ) ) )
(or ( <= ( + T8 436 )  ( + T9 358 ) ) ( <= ( + T9 365 )( + T8 406 ) ) )
(or ( <= ( + T8 451 )  ( + T9 365 ) ) ( <= ( + T9 371 )( + T8 436 ) ) )
(or ( <= ( + T8 452 )  ( + T9 371 ) ) ( <= ( + T9 389 )( + T8 451 ) ) )
(or ( <= ( + T8 505 )  ( + T9 389 ) ) ( <= ( + T9 480 )( + T8 452 ) ) )
(or ( <= ( + T8 528 )  ( + T9 480 ) ) ( <= ( + T9 568 )( + T8 505 ) ) )
(or ( <= ( + T8 69 ) T10 ) ( <= ( + T10 82 ) T8 ) )
(or ( <= ( + T8 126 )  ( + T10 82 ) ) ( <= ( + T10 119 )( + T8 69 ) ) )
(or ( <= ( + T8 168 )  ( + T10 119 ) ) ( <= ( + T10 171 )( + T8 126 ) ) )
(or ( <= ( + T8 233 )  ( + T10 171 ) ) ( <= ( + T10 221 )( + T8 168 ) ) )
(or ( <= ( + T8 282 )  ( + T10 221 ) ) ( <= ( + T10 252 )( + T8 233 ) ) )
(or ( <= ( + T8 344 )  ( + T10 252 ) ) ( <= ( + T10 269 )( + T8 282 ) ) )
(or ( <= ( + T8 406 )  ( + T10 269 ) ) ( <= ( + T10 270 )( + T8 344 ) ) )
(or ( <= ( + T8 436 )  ( + T10 270 ) ) ( <= ( + T10 370 )( + T8 406 ) ) )
(or ( <= ( + T8 451 )  ( + T10 370 ) ) ( <= ( + T10 443 )( + T8 436 ) ) )
(or ( <= ( + T8 452 )  ( + T10 443 ) ) ( <= ( + T10 537 )( + T8 451 ) ) )
(or ( <= ( + T8 505 )  ( + T10 537 ) ) ( <= ( + T10 553 )( + T8 452 ) ) )
(or ( <= ( + T8 528 )  ( + T10 553 ) ) ( <= ( + T10 574 )( + T8 505 ) ) )
(or ( <= ( + T9 63 ) T10 ) ( <= ( + T10 82 ) T9 ) )
(or ( <= ( + T9 145 )  ( + T10 82 ) ) ( <= ( + T10 119 )( + T9 63 ) ) )
(or ( <= ( + T9 175 )  ( + T10 119 ) ) ( <= ( + T10 171 )( + T9 145 ) ) )
(or ( <= ( + T9 215 )  ( + T10 171 ) ) ( <= ( + T10 221 )( + T9 175 ) ) )
(or ( <= ( + T9 302 )  ( + T10 221 ) ) ( <= ( + T10 252 )( + T9 215 ) ) )
(or ( <= ( + T9 350 )  ( + T10 252 ) ) ( <= ( + T10 269 )( + T9 302 ) ) )
(or ( <= ( + T9 358 )  ( + T10 269 ) ) ( <= ( + T10 270 )( + T9 350 ) ) )
(or ( <= ( + T9 365 )  ( + T10 270 ) ) ( <= ( + T10 370 )( + T9 358 ) ) )
(or ( <= ( + T9 371 )  ( + T10 370 ) ) ( <= ( + T10 443 )( + T9 365 ) ) )
(or ( <= ( + T9 389 )  ( + T10 443 ) ) ( <= ( + T10 537 )( + T9 371 ) ) )
(or ( <= ( + T9 480 )  ( + T10 537 ) ) ( <= ( + T10 553 )( + T9 389 ) ) )
(or ( <= ( + T9 568 )  ( + T10 553 ) ) ( <= ( + T10 574 )( + T9 480 ) ) )
( <= ( + T1 772 ) Z)
( <= ( + T2 459 ) Z)
( <= ( + T3 744 ) Z)
( <= ( + T4 645 ) Z)
( <= ( + T5 678 ) Z)
( <= ( + T6 467 ) Z)
( <= ( + T7 451 ) Z)
( <= ( + T8 528 ) Z)
( <= ( + T9 568 ) Z)
( <= ( + T10 574 ) Z)
( >= T1 0 )
( >= T2 0 )
( >= T3 0 )
( >= T4 0 )
( >= T5 0 )
( >= T6 0 )
( >= T7 0 )
( >= T8 0 )
( >= T9 0 )
( >= T10 0 )
) )
)(=> $phi $goal))))